33D32945 STP File, STP Format Version 1.0

SECTION Comments
Name "edge_n14_d4_s19"
Problem "Euclidean Steiner Tree Problem"
Remark "Generated with STPGenerator. 4 dimensions."
END

SECTION Graph
Nodes 14
END

SECTION Coordinates
DDDD 0 0.2902333854 0.2902333854 0.2902333854 0.2902333854
DDDD 1 0.3277869785 0.3277869785 0.3277869785 0.3277869785
DDDD 2 0.2285638117 0.2285638117 0.2285638117 0.2285638117
DDDD 3 0.0594177293 0.0594177293 0.0594177293 0.0594177293
DDDD 4 0.2219586108 0.2219586108 0.2219586108 0.2219586108
DDDD 5 0.6696780285 0.6696780285 0.6696780285 0.6696780285
DDDD 6 0.3323929949 0.3323929949 0.3323929949 0.3323929949
DDDD 7 0.5761897869 0.5761897869 0.5761897869 0.5761897869
DDDD 8 0.2733734680 0.2733734680 0.2733734680 0.2733734680
DDDD 9 0.0765914861 0.0765914861 0.0765914861 0.0765914861
DDDD 10 0.6450726547 0.6450726547 0.6450726547 0.6450726547
DDDD 11 0.0391567499 0.0391567499 0.0391567499 0.0391567499
DDDD 12 0.5865659870 0.5865659870 0.5865659870 0.5865659870
DDDD 13 0.9423629041 0.9423629041 0.9423629041 0.9423629041
END
